35
8 10
15 14
-13 6
0 0
-7 -19
-18 20
8 7 
20 9
30 18
-25 -12
36 36
3 -10
35 8
3 35
-20 30
37 37
40 40
-15 30
26 -9
5 -35
-10 -10
5 -15
16 33
0 35
18 -8
19 -23
4 -28
17 -34
18 -36
9 27
-9 -18
-7 -21
-11 40
-17 34
14 -15










